Minimize
  - 18 y_0 - 18 y_2 - 16 y_3 - 26 y_4 - 23 y_5 - 21 y_6 - 18 y_7 - 6 y_8
   - 13 y_9 + 71 x_0_1 + 32 x_0_5 + 30 x_0_6 + 21 x_0_9 + 74 x_1_2
   + 92 x_1_5 + 22 x_1_8 + 53 x_1_9 + 74 x_2_6 + 57 x_2_8 + 53 x_2_9
   + 62 x_3_4 + 72 x_3_5 + 28 x_3_7 + 74 x_3_8 + 29 x_4_5 + 36 x_4_7
   + 56 x_5_6 + 51 x_5_9 + 14 x_6_7 + 87 x_6_8 + 75 x_7_8 + 21 x_7_9
   + 21 x_7_9 + 21 x_7_9 + 21 x_7_9 + 21 x_7_9 + 21 x_7_9 + 21 x_7_9
   + 21 x_7_9 + 21 x_7_9 + 21 x_7_9 + 21 x_7_9 + 21 x_7_9 + 21 x_7_9
   + 21 x_7_9 + 21 x_7_9 + 21 x_7_9 + 21 x_7_9 + 21 x_7_9 + 21 x_7_9
   + 21 x_7_9 + 21 x_7_9 + 21 x_7_9 + 21 x_7_9 + 21 x_7_9 + 21 x_7_9
   + 21 x_7_9 + 21 x_7_9 + 21 x_7_9 + 21 x_7_9 + 21 x_7_9 + 21 x_7_9
   + 21 x_7_9 + 21 x_7_9 + 21 x_7_9 + 21 x_7_9 + 21 x_7_9 + 21 x_7_9
   + 21 x_7_9 + 21 x_7_9 + 21 x_7_9 + 21 x_7_9 + 21 x_7_9 + 21 x_7_9
   + 21 x_7_9 + 21 x_7_9 + 21 x_7_9 + 21 x_7_9 + 21 x_7_9 + 21 x_7_9
   + 21 x_7_9 + 21 x_7_9 + 21 x_7_9 + 21 x_7_9 + 21 x_7_9 + 21 x_7_9
   + 21 x_7_9 + 21 x_7_9 + 21 x_7_9 + 21 x_7_9 + 21 x_7_9 + 21 x_7_9
   + 21 x_7_9 + 21 x_7_9 + 21 x_7_9 + 21 x_7_9 + 21 x_7_9 + 21 x_7_9
   + 21 x_7_9 + 21 x_7_9 + 21 x_7_9 + 21 x_7_9 + 21 x_7_9 + 21 x_7_9
   + 21 x_7_9 + 21 x_7_9 + 21 x_7_9 + 21 x_7_9 + 21 x_7_9 + 21 x_7_9
   + 21 x_7_9 + 21 x_7_9 + 21 x_7_9 + 21 x_7_9 + 21 x_7_9 + 21 x_7_9
   + 21 x_7_9 + 21 x_7_9 + 21 x_7_9 + 21 x_7_9 + 21 x_7_9 + 21 x_7_9
   + 21 x_7_9 + 21 x_7_9 + 21 x_7_9 + 21 x_7_9 + 21 x_7_9 + 21 x_7_9
   + 21 x_7_9 + 21 x_7_9 + 21 x_7_9 + 21 x_7_9 + 21 x_7_9 + 21 x_7_9
   + 21 x_7_9 + 21 x_7_9 + 21 x_7_9 + 21 x_7_9 + 21 x_7_9 + 21 x_7_9
   + 21 x_7_9 + 21 x_7_9 + 21 x_7_9 + 21 x_7_9 + 21 x_7_9 + 21 x_7_9
   + 21 x_7_9 + 21 x_7_9 + 21 x_7_9 + 21 x_7_9 + 21 x_7_9 + 21 x_7_9
   + 21 x_7_9 + 21 x_7_9 + 21 x_7_9 + 21 x_7_9 + 21 x_7_9 + 21 x_7_9
   + 21 x_7_9 + 21 x_7_9 + 21 x_7_9 + 21 x_7_9 + 21 x_7_9 + 21 x_7_9
   + 21 x_7_9 + 21 x_7_9 + 21 x_7_9 + 21 x_7_9 + 21 x_7_9 + 21 x_7_9
   + 21 x_7_9 + 21 x_7_9 + 21 x_7_9 + 21 x_7_9 + 21 x_7_9 + 21 x_7_9
   + 21 x_7_9 + 21 x_7_9 + 21 x_7_9 + 21 x_7_9 + 21 x_7_9 + 21 x_7_9
   + 21 x_7_9 + 21 x_7_9 + 21 x_7_9 + 21 x_7_9 + 21 x_7_9 + 21 x_7_9
   + 21 x_7_9 + 21 x_7_9 + 21 x_7_9 + 21 x_7_9 + 21 x_7_9 + 21 x_7_9
   + 21 x_7_9 + 21 x_7_9 + 21 x_7_9 + 21 x_7_9 + 21 x_7_9 + 21 x_7_9
   + 21 x_7_9 + 21 x_7_9 + 21 x_7_9 + 21 x_7_9 + 21 x_7_9 + 21 x_7_9
   + 21 x_7_9 + 21 x_7_9 + 21 x_7_9 + 21 x_7_9 + 21 x_7_9 + 21 x_7_9
   + 21 x_7_9 + 21 x_7_9 + 21 x_7_9 + 21 x_7_9 + 21 x_7_9 + 21 x_7_9
   + 21 x_7_9 + 21 x_7_9 + 21 x_7_9 + 21 x_7_9 + 21 x_7_9 + 21 x_7_9
   + 21 x_7_9 + 21 x_7_9 + 21 x_7_9 + 21 x_7_9 + 21 x_7_9 + 21 x_7_9
   + 21 x_7_9 + 21 x_7_9 + 21 x_7_9 + 21 x_7_9 + 21 x_7_9 + 21 x_7_9
   + 21 x_7_9 + 21 x_7_9 + 21 x_7_9 + 159 Constant
Subject To
 c_0: y_0 = 1
 c_1_0: y_0 >= 1
 c_1_1: y_1 >= 1
 c_1_2: y_2 >= 1
 c_1_3: y_3 >= 1
 c_1_4: y_4 >= 1
 c_1_5: y_5 >= 1
 c_1_6: y_6 >= 1
 c_1_7: y_7 >= 1
 c_1_8: y_8 >= 1
 c_1_9: y_9 >= 1
 c_2_0: - 2 y_0 + x_0_1 + x_0_5 + x_0_6 + x_0_9 = 0
 c_2_1: - 2 y_1 + x_0_1 + x_1_2 + x_1_5 + x_1_8 + x_1_9 = 0
 c_2_2: - 2 y_2 + x_1_2 + x_2_6 + x_2_8 + x_2_9 = 0
 c_2_3: - 2 y_3 + x_3_4 + x_3_5 + x_3_7 + x_3_8 = 0
 c_2_4: - 2 y_4 + x_3_4 + x_4_5 + x_4_7 = 0
 c_2_5: - 2 y_5 + x_0_5 + x_1_5 + x_3_5 + x_4_5 + x_5_6 + x_5_9 = 0
 c_2_6: - 2 y_6 + x_0_6 + x_2_6 + x_5_6 + x_6_7 + x_6_8 = 0
 c_2_7: - 2 y_7 + x_3_7 + x_4_7 + x_6_7 + x_7_8 + 208 x_7_9 = 0
 c_2_8: - 2 y_8 + x_1_8 + x_2_8 + x_3_8 + x_6_8 + x_7_8 = 0
 c_2_9: - 2 y_9 + x_0_9 + x_1_9 + x_2_9 + x_5_9 + 208 x_7_9 = 0
Bounds
 Constant = 1
Binaries
 y_0 y_1 y_2 y_3 y_4 y_5 y_6 y_7 y_8 y_9 x_0_1 x_0_5 x_0_6 x_0_9 x_1_2
 x_1_5 x_1_8 x_1_9 x_2_6 x_2_8 x_2_9 x_3_4 x_3_5 x_3_7 x_3_8 x_4_5 x_4_7
 x_5_6 x_5_9 x_6_7 x_6_8 x_7_8 x_7_9 x_7_9 x_7_9 x_7_9 x_7_9 x_7_9 x_7_9
 x_7_9 x_7_9 x_7_9 x_7_9 x_7_9 x_7_9 x_7_9 x_7_9 x_7_9 x_7_9 x_7_9 x_7_9
 x_7_9 x_7_9 x_7_9 x_7_9 x_7_9 x_7_9 x_7_9 x_7_9 x_7_9 x_7_9 x_7_9 x_7_9
 x_7_9 x_7_9 x_7_9 x_7_9 x_7_9 x_7_9 x_7_9 x_7_9 x_7_9 x_7_9 x_7_9 x_7_9
 x_7_9 x_7_9 x_7_9 x_7_9 x_7_9 x_7_9 x_7_9 x_7_9 x_7_9 x_7_9 x_7_9 x_7_9
 x_7_9 x_7_9 x_7_9 x_7_9 x_7_9 x_7_9 x_7_9 x_7_9 x_7_9 x_7_9 x_7_9 x_7_9
 x_7_9 x_7_9 x_7_9 x_7_9 x_7_9 x_7_9 x_7_9 x_7_9 x_7_9 x_7_9 x_7_9 x_7_9
 x_7_9 x_7_9 x_7_9 x_7_9 x_7_9 x_7_9 x_7_9 x_7_9 x_7_9 x_7_9 x_7_9 x_7_9
 x_7_9 x_7_9 x_7_9 x_7_9 x_7_9 x_7_9 x_7_9 x_7_9 x_7_9 x_7_9 x_7_9 x_7_9
 x_7_9 x_7_9 x_7_9 x_7_9 x_7_9 x_7_9 x_7_9 x_7_9 x_7_9 x_7_9 x_7_9 x_7_9
 x_7_9 x_7_9 x_7_9 x_7_9 x_7_9 x_7_9 x_7_9 x_7_9 x_7_9 x_7_9 x_7_9 x_7_9
 x_7_9 x_7_9 x_7_9 x_7_9 x_7_9 x_7_9 x_7_9 x_7_9 x_7_9 x_7_9 x_7_9 x_7_9
 x_7_9 x_7_9 x_7_9 x_7_9 x_7_9 x_7_9 x_7_9 x_7_9 x_7_9 x_7_9 x_7_9 x_7_9
 x_7_9 x_7_9 x_7_9 x_7_9 x_7_9 x_7_9 x_7_9 x_7_9 x_7_9 x_7_9 x_7_9 x_7_9
 x_7_9 x_7_9 x_7_9 x_7_9 x_7_9 x_7_9 x_7_9 x_7_9 x_7_9 x_7_9 x_7_9 x_7_9
 x_7_9 x_7_9 x_7_9 x_7_9 x_7_9 x_7_9 x_7_9 x_7_9 x_7_9 x_7_9 x_7_9 x_7_9
 x_7_9 x_7_9 x_7_9 x_7_9 x_7_9 x_7_9 x_7_9 x_7_9 x_7_9 x_7_9 x_7_9 x_7_9
 x_7_9 x_7_9 x_7_9 x_7_9 x_7_9 x_7_9 x_7_9 x_7_9 x_7_9
End
